; benchmark generated from python API
(set-info :status unknown)
(declare-datatypes ((RealState 0)) (((RMk1 (rval1 Real)) (RMk2 (rval2 Real)))))
 (assert
 (exists ((?x1_st RealState) (val!426 Real) )(forall ((?x2 Real) )(exists ((?x3_st RealState) (val!427 Real) )(let ((?x4636 (+ (+ (* (- 70.0) (rval2 ?x1_st)) (* 29.0 ?x2)) (* (- 82.0) (rval2 ?x3_st)))))
 (let (($x12419 (and (>= (+ (* 11.0 ?x2) (* (- 32.0) (rval2 ?x3_st))) 0.0) (not (= ?x4636 0.0)))))
 (let ((?x6719 (- 95.0)))
 (let ((?x9946 (+ (+ (* 31.0 (rval2 ?x1_st)) (* 66.0 ?x2)) (* (- 59.0) (rval2 ?x3_st)))))
 (let (($x3868 (and (>= ?x9946 ?x6719) (>= (+ (* 83.0 (rval2 ?x1_st)) (* 90.0 (rval2 ?x3_st))) (- 74.0)))))
 (let ((?x13985 (- 96.0)))
 (let ((?x2367 (+ (+ (* 55.0 (rval2 ?x1_st)) (* (- 16.0) ?x2)) (* (- 49.0) (rval2 ?x3_st)))))
 (let ((?x4407 (- 24.0)))
 (let ((?x17011 (+ (+ (* 59.0 (rval2 ?x1_st)) (* 12.0 ?x2)) (* (- 15.0) (rval2 ?x3_st)))))
 (let ((?x878 (+ (+ (* (- 73.0) (rval2 ?x1_st)) (* 59.0 ?x2)) (* (- 18.0) (rval2 ?x3_st)))))
 (let (($x1075 (or (and (= (* 51.0 ?x2) 50.0) (> ?x878 0.0)) (>= (* (- 2.0) (rval2 ?x1_st)) 0.0))))
 (let ((?x12491 (rval2 ?x3_st)))
 (let ((?x24865 (* 44.0 ?x12491)))
 (let ((?x2312 (+ (+ (* 39.0 (rval2 ?x1_st)) (* (- 55.0) ?x2)) (* (- 33.0) ?x12491))))
 (let (($x7719 (or (< ?x2312 0.0) (< (+ (+ (* ?x13985 (rval2 ?x1_st)) (* (- 35.0) ?x2)) ?x24865) 0.0))))
 (let ((?x14362 (- 46.0)))
 (let (($x17105 (= (+ (+ (* (- 54.0) (rval2 ?x1_st)) (* 51.0 ?x2)) (* 57.0 ?x12491)) ?x14362)))
 (let (($x11552 (or (>= (+ (* 11.0 (rval2 ?x1_st)) (* (- 28.0) ?x2)) 37.0) $x17105)))
 (let (($x16477 (and (or (or $x11552 $x7719) $x1075) (and (or (or (not (= ?x17011 ?x4407)) (> ?x2367 ?x13985)) $x3868) $x12419))))
 (let (($x223 (or (< (+ (* 1.0 (rval2 ?x1_st)) (* 53.0 ?x2)) (- 86.0)) (< (* (- 12.0) ?x2) 79.0))))
 (let ((?x10701 (+ (+ (* 46.0 (rval2 ?x1_st)) (* (- 11.0) ?x2)) (* (- 68.0) ?x12491))))
 (let (($x10026 (and (<= (+ (* (- 54.0) ?x2) (* (- 87.0) ?x12491)) 51.0) (> ?x10701 77.0))))
 (let ((?x11670 (- 32.0)))
 (let (($x15411 (>= (+ (+ (* (- 33.0) (rval2 ?x1_st)) (* 99.0 ?x2)) (* 47.0 ?x12491)) ?x11670)))
 (let (($x2099 (and (or $x15411 (= (+ (* (- 19.0) ?x2) (* (- 97.0) ?x12491)) 5.0)) (and $x10026 $x223))))
 (let (($x310 (= (+ (+ (* 89.0 (rval2 ?x1_st)) (* 65.0 ?x2)) (* 84.0 ?x12491)) 27.0)))
 (let ((?x8947 (- 17.0)))
 (let (($x16937 (< (+ (+ (* ?x4407 (rval2 ?x1_st)) (* (- 93.0) ?x2)) (* 97.0 ?x12491)) ?x8947)))
 (let (($x13724 (<= (+ (+ (* (- 41.0) (rval2 ?x1_st)) (* 48.0 ?x2)) (* 22.0 ?x12491)) 44.0)))
 (let (($x9406 (and (> (* 3.0 ?x12491) (- 7.0)) (and (and (= (* 71.0 ?x12491) 0.0) $x13724) (and $x16937 (not $x310))))))
 (let (($x9712 (> (+ (+ (* 11.0 (rval2 ?x1_st)) (* (- 84.0) ?x2)) (* 15.0 ?x12491)) 36.0)))
 (let (($x6603 (and (>= (+ (* 67.0 (rval2 ?x1_st)) (* (- 21.0) ?x12491)) (- 8.0)) $x9712)))
 (let ((?x11560 (- 90.0)))
 (let ((?x8502 (+ (+ (* (- 94.0) (rval2 ?x1_st)) (* 96.0 ?x2)) (* (- 42.0) ?x12491))))
 (let ((?x10901 (- 45.0)))
 (let ((?x6871 (+ (+ (* 48.0 (rval2 ?x1_st)) (* (- 48.0) ?x2)) (* (- 34.0) ?x12491))))
 (let (($x2462 (= (+ (+ (* 75.0 (rval2 ?x1_st)) (* 6.0 ?x2)) (* 70.0 ?x12491)) 57.0)))
 (let (($x1407 (and (or (not $x2462) (= (+ (* (- 63.0) ?x2) (* 1.0 ?x12491)) 11.0)) (or (not (= ?x6871 ?x10901)) (not (= ?x8502 ?x11560))))))
 (let (($x12306 (or (>= (* (- 18.0) (rval2 ?x1_st)) ?x11670) (>= (+ (* (- 92.0) (rval2 ?x1_st)) (* 64.0 ?x12491)) 16.0))))
 (let (($x6384 (or (> (* ?x10901 ?x2) 0.0) (> (+ (* (- 69.0) (rval2 ?x1_st)) (* (- 86.0) ?x12491)) 0.0))))
 (let ((?x15149 (- 86.0)))
 (let ((?x29076 (* 42.0 ?x12491)))
 (let (($x6654 (>= (+ (+ (* (- 83.0) (rval2 ?x1_st)) (* (- 74.0) ?x2)) ?x29076) ?x15149)))
 (let ((?x13925 (- 19.0)))
 (let (($x6588 (<= (+ (+ (* 40.0 (rval2 ?x1_st)) (* (- 81.0) ?x2)) (* 75.0 ?x12491)) ?x13925)))
 (let ((?x11311 (- 6.0)))
 (let ((?x23911 (* 26.0 ?x12491)))
 (let (($x19091 (= (+ (+ (* (- 74.0) (rval2 ?x1_st)) (* (- 73.0) ?x2)) ?x23911) ?x11311)))
 (let (($x11684 (or (and (not $x19091) $x6588) (or (< (+ (* 46.0 ?x2) (* 90.0 ?x12491)) 94.0) $x6654))))
 (let (($x5860 (>= (+ (+ (* 18.0 (rval2 ?x1_st)) (* (- 87.0) ?x2)) (* 79.0 ?x12491)) 16.0)))
 (let (($x2233 (and $x5860 (> (+ (* (- 64.0) (rval2 ?x1_st)) (* (- 37.0) ?x2)) 0.0))))
 (let ((?x6678 (+ (+ (* (- 41.0) (rval2 ?x1_st)) (* (- 5.0) ?x2)) (* (- 53.0) ?x12491))))
 (let (($x8569 (>= (+ (+ (* (- 100.0) (rval2 ?x1_st)) (* 90.0 ?x2)) (* 34.0 ?x12491)) 7.0)))
 (let ((?x3476 (* 84.0 ?x12491)))
 (let (($x21878 (> (+ (+ (* (- 79.0) (rval2 ?x1_st)) (* (- 71.0) ?x2)) ?x3476) 0.0)))
 (let (($x11578 (> (+ (+ (* (- 36.0) (rval2 ?x1_st)) (* ?x14362 ?x2)) (* 8.0 ?x12491)) 33.0)))
 (let ((?x4880 (- 44.0)))
 (let ((?x24262 (* ?x4880 ?x12491)))
 (let (($x4317 (or (= (+ (+ (* 84.0 (rval2 ?x1_st)) (* (- 77.0) ?x2)) ?x24262) 0.0) $x11578)))
 (let (($x3901 (or (and $x4317 (and $x21878 $x8569)) (or (and (< (* (- 82.0) ?x2) 40.0) (> ?x6678 57.0)) $x2233))))
 (let (($x4410 (and (or (or $x3901 (and $x11684 (or $x6384 $x12306))) (or (and $x1407 $x6603) $x9406)) (and $x2099 $x16477))))
 (let (($x2026 (and (= (+ (* 4.0 (rval2 ?x1_st)) (* (- 35.0) ?x2)) 77.0) (not (= (+ (* 21.0 (rval2 ?x1_st)) (* 74.0 ?x12491)) 66.0)))))
 (let (($x6544 (or (>= (+ (* 82.0 (rval2 ?x1_st)) (* 67.0 ?x2)) 10.0) (> (+ (* 69.0 (rval2 ?x1_st)) (* 81.0 ?x12491)) 0.0))))
 (let (($x15228 (and (<= (+ (* (- 89.0) ?x2) (* (- 26.0) ?x12491)) 47.0) (> (+ (* (- 49.0) ?x2) (* 63.0 ?x12491)) 66.0))))
 (let (($x1914 (< (+ (+ (* 52.0 (rval2 ?x1_st)) (* 69.0 ?x2)) (* 28.0 ?x12491)) 73.0)))
 (let (($x11883 (= (+ (+ (* (- 15.0) (rval2 ?x1_st)) (* 12.0 ?x2)) (* ?x14362 ?x12491)) 72.0)))
 (let ((?x6984 (- 98.0)))
 (let (($x16736 (>= (+ (+ (* 87.0 (rval2 ?x1_st)) (* (- 36.0) ?x2)) (* 55.0 ?x12491)) ?x6984)))
 (let (($x9010 (= (+ (+ (* 13.0 (rval2 ?x1_st)) (* 52.0 ?x2)) (* (- 91.0) ?x12491)) 0.0)))
 (let (($x12583 (and $x9010 (> (+ (+ (* (- 7.0) (rval2 ?x1_st)) (* 94.0 ?x2)) ?x24262) 0.0))))
 (let ((?x12285 (- 63.0)))
 (let (($x5141 (= (+ (+ (* 1.0 (rval2 ?x1_st)) (* (- 42.0) ?x2)) (* 77.0 ?x12491)) ?x12285)))
 (let (($x21450 (or (not $x5141) (< (+ (+ (* 20.0 (rval2 ?x1_st)) (* 74.0 ?x2)) ?x29076) 0.0))))
 (let (($x5631 (and (<= (+ (* (- 18.0) ?x2) (* 12.0 ?x12491)) (- 28.0)) (= (+ (* (- 22.0) (rval2 ?x1_st)) (* (- 40.0) ?x12491)) (- 4.0)))))
 (let (($x291 (and (and (or $x5631 $x21450) (and $x12583 $x16736)) (or (or (and (not $x11883) $x1914) $x15228) (or $x6544 $x2026)))))
 (let (($x15950 (and (> (* 49.0 ?x12491) ?x13925) (= (* (- 73.0) (rval2 ?x1_st)) (- 66.0)))))
 (let (($x4498 (or (< (+ (* (- 78.0) ?x2) (* 66.0 ?x12491)) 25.0) (< (+ (* 74.0 ?x2) (* 65.0 ?x12491)) (- 80.0)))))
 (let ((?x1517 (* 63.0 ?x12491)))
 (let (($x4962 (<= (+ (+ (* (- 91.0) (rval2 ?x1_st)) (* (- 55.0) ?x2)) ?x1517) 35.0)))
 (let (($x5439 (and (not (= (+ (* (- 80.0) (rval2 ?x1_st)) (* 79.0 ?x2)) 48.0)) (<= (+ (* 46.0 (rval2 ?x1_st)) (* (- 47.0) ?x2)) 38.0))))
 (let (($x7658 (and $x5439 (and (< (+ (* 41.0 ?x2) (* 90.0 ?x12491)) 0.0) $x4962))))
 (let (($x16369 (< (+ (+ (* 1.0 (rval2 ?x1_st)) (* (- 8.0) ?x2)) (* 12.0 ?x12491)) 61.0)))
 (let (($x15727 (and $x16369 (< (+ (* (- 42.0) (rval2 ?x1_st)) (* 68.0 ?x2)) (- 47.0)))))
 (let (($x4207 (and (< (+ (* 91.0 (rval2 ?x1_st)) (* (- 93.0) ?x2)) 58.0) (> (+ (* (- 68.0) ?x2) (* 88.0 ?x12491)) 74.0))))
 (let ((?x21091 (* ?x11670 ?x12491)))
 (let (($x469 (>= (+ (+ (* (- 26.0) (rval2 ?x1_st)) (* (- 79.0) ?x2)) ?x21091) 61.0)))
 (let (($x15431 (or (and (= (+ (* 21.0 ?x2) (* 76.0 ?x12491)) (- 18.0)) $x469) $x4207)))
 (let (($x12782 (and (= (* (- 58.0) (rval2 ?x1_st)) (- 1.0)) (> (+ (* (- 13.0) (rval2 ?x1_st)) (* 93.0 ?x2)) 0.0))))
 (let (($x22840 (or (<= (+ (* 79.0 (rval2 ?x1_st)) (* 1.0 ?x12491)) 5.0) (not (= (+ (* 42.0 (rval2 ?x1_st)) (* 4.0 ?x12491)) 84.0)))))
 (let (($x9310 (or (= (* (- 41.0) (rval2 ?x1_st)) 20.0) (>= (+ (* (- 53.0) ?x2) (* (- 43.0) ?x12491)) 94.0))))
 (let ((?x24018 (* 71.0 ?x12491)))
 (let (($x738 (< (+ (+ (* (- 88.0) (rval2 ?x1_st)) (* (- 58.0) ?x2)) ?x24018) 0.0)))
 (let (($x18382 (or (and (< (+ (* (- 42.0) (rval2 ?x1_st)) (* ?x10901 ?x12491)) 0.0) $x738) $x9310)))
 (let ((?x9379 (- 49.0)))
 (let ((?x25512 (+ (+ (* 22.0 (rval2 ?x1_st)) (* (- 35.0) ?x2)) (* (- 77.0) ?x12491))))
 (let ((?x30725 (- 91.0)))
 (let ((?x30962 (+ (+ (* (- 61.0) (rval2 ?x1_st)) (* 58.0 ?x2)) (* (- 69.0) ?x12491))))
 (let (($x14368 (and (>= (+ (* 20.0 ?x2) (* (- 51.0) ?x12491)) 25.0) (= ?x30962 ?x30725))))
 (let (($x6549 (or (not (= (+ (* (- 64.0) ?x2) (* (- 1.0) ?x12491)) 12.0)) (< (+ (* (- 27.0) (rval2 ?x1_st)) (* 39.0 ?x12491)) 0.0))))
 (let ((?x1474 (+ (+ (* 34.0 (rval2 ?x1_st)) (* (- 28.0) ?x2)) (* (- 83.0) ?x12491))))
 (let (($x2787 (or (= (+ (* (- 94.0) ?x2) (* 90.0 ?x12491)) (- 54.0)) (> ?x1474 62.0))))
 (let (($x77 (< (+ (+ (* (- 53.0) (rval2 ?x1_st)) (* 77.0 ?x2)) (* 51.0 ?x12491)) 79.0)))
 (let (($x11521 (and (and (or $x77 (not (= (* (- 56.0) (rval2 ?x1_st)) 0.0))) $x2787) (or (or $x6549 $x14368) (> ?x25512 ?x9379)))))
 (let (($x1124 (and (and $x11521 (or (and $x18382 (and $x22840 $x12782)) $x15431)) (or (and (or $x15727 $x7658) (and $x4498 $x15950)) $x291))))
 (let (($x636 (not (= ?x3_st (RMk1 val!427)))))
 (let (($x12990 (not (= ?x1_st (RMk1 val!426)))))
 (and $x12990 $x636 (or $x1124 $x4410)))))))))))))))))))))))))))))))))))))))))))))))))))))))))))))))))))))))))))))))))))))))))))))))))))))))))))))
 )
 )
 )
(check-sat)
